100
32
31
20
15
13
14
5
11
11
10
22
3
2
15
17
1
23
1
2
1
1
2
2
1
21
1
4
1
21
5
21
21
2
1
15
12
1
12
7
15
17
8
17
11
1
4
2
20
5
1
1
1
6
2
1
1
4
17
2
4
2
4
4
5
17
2
1
1
1
1
4
3
17
2
1
2
7
1
3
4
1
2
1
1
1
2
1
2
1
3
2
5
2
1
2
17
1
17
1
3
6